\ Model Routes
\ LP format - for model browsing. Use MPS format to capture full model detail.
Maximize
  - 191.7153353028244 R{0,0} + 623.2046552982704 R{0,1}
   + 623.2046552982704 R{0,2} - 249.2301939667805 R{0,3}
   + 21.74171921833499 R{0,4} + 1121.731121899978 R{0,5}
   + 1121.731121899978 R{0,6} + 568.2280287393723 R{0,7}
   + 1203.021530884487 R{0,8} + 501.9389214104442 R{0,9}
   + 568.2280287393723 R{0,10} + 568.2280287393723 R{0,11}
   + 438.444658217614 R{0,12} + 1114.28993837639 R{0,13}
   + 227.0117100192371 R{0,14} + 227.0117100192371 R{0,15}
   + 227.0117100192371 R{0,16} + 368.3846205900942 R{0,17}
   - 256.140831891889 R{1,0} + 122.5775147054787 R{1,1}
   + 750.0651913706499 R{1,2} + 504.2307693058489 R{1,3}
   + 389.7840786120244 R{1,4} + 699.3258695813342 R{1,5}
   + 648.9635054258216 R{1,6} + 1011.976032766764 R{1,7}
   + 1011.976032766764 R{1,8} + 499.8665180662908 R{1,9}
   + 304.0413261533648 R{1,10} + 304.0413261533648 R{1,11}
   + 1011.976032766764 R{1,12} + 302.2118824774795 R{1,13}
   + 1011.976032766764 R{1,14} + 113.0626312224127 R{1,15}
   + 824.9083863152862 R{1,16} + 1011.36878785187 R{1,17}
   + 1213.765520019035 R{1,18} + 1198.881248318718 R{2,0}
   + 1198.881248318718 R{2,1} - 278.4443928850388 R{2,2}
   + 328.7348515371482 R{2,3} + 1425.441843899394 R{2,4}
   + 1425.441843899394 R{2,5} + 817.7507138802766 R{2,6}
   + 355.5628375470975 R{2,7} + 832.465065802254 R{2,8}
   + 1658.561087707053 R{2,9} + 1460.660089018376 R{2,10}
   + 832.465065802254 R{2,11} + 469.7670341429359 R{2,12}
   + 832.465065802254 R{2,13} + 655.9931975527659 R{2,14}
   + 462.2985486765674 R{2,15} + 462.2985486765674 R{2,16}
   + 591.0325885092791 R{2,17} + 212.622736428392 R{2,18}
   + 462.2985486765674 R{2,19} + 832.465065802254 R{2,20}
   + 358.8189713278232 R{2,21} + 462.2985486765674 R{2,22}
   + 1066.674349159885 R{2,23} + 676.3389928253465 R{2,24}
   + 817.7507138802766 R{2,25} - 260.2482995389823 R{3,0}
   + 507.2449935460145 R{3,1} + 886.6055046369149 R{3,2}
   + 1048.008998964753 R{3,3} + 963.3798025672647 R{3,4}
   + 699.5608877631121 R{3,5} + 963.3798025672647 R{3,6}
   + 498.9771369118957 R{3,7} + 667.0165494582914 R{3,8}
   + 410.9410928859563 R{3,9} + 588.1376897061539 R{3,10}
   + 1094.177822420598 R{3,11} + 402.1384784616362 R{3,12}
   + 588.1376897061539 R{3,13} + 963.4655791525038 R{3,14}
   + 918.6631125741349 R{3,15} + 521.2561681094396 R{3,16}
   + 427.5314534759302 R{3,17} + 120.3811625677244 R{3,18}
   + 366.4589653853892 R{3,19} - 242.5208875955131 R{4,0}
   + 1066.379443184683 R{4,1} + 1576.196574514046 R{4,2}
   + 1750.419868351688 R{4,3} + 1931.337246971942 R{4,4}
   + 1090.561604570247 R{4,5} + 998.1714153678329 R{4,6}
   + 663.6110072577596 R{4,7} + 1529.283360765447 R{4,8}
   + 1750.494163105618 R{4,9} + 1620.47719180557 R{4,10}
   + 2264.716888839736 R{4,11} + 1127.348908711559 R{4,12}
   + 1947.796317828265 R{4,13} + 1361.644481587452 R{4,14}
   + 1090.561604570247 R{4,15} + 1605.528015159958 R{4,16}
   + 1127.348908711559 R{4,17} + 922.9227253922518 R{4,18}
   + 994.8230034900444 R{4,19} + 1264.923329370855 R{4,20}
   + 1119.881121613778 R{4,21} - 231.9775664337766 R{5,0}
   + 5.881498643212382 R{5,1} + 590.3457200324908 R{5,2}
   + 541.2002165660356 R{5,3} + 348.4432320587376 R{5,4}
   + 385.0062059762196 R{5,5} + 215.8662896161333 R{5,6}
   + 359.0545646818952 R{5,7} + 254.2194055226688 R{5,8}
   + 319.2999618803723 R{5,9} + 274.1903736781217 R{5,10}
   + 179.0569114899727 R{5,11} + 281.6502712537329 R{5,12}
   + 371.4404749305036 R{5,13} - 231.1436095783099 R{6,0}
   + 1370.402709432251 R{6,1} + 2203.660382897198 R{6,2}
   + 2548.258740052186 R{6,3} + 898.6560523156149 R{6,4}
   + 2447.958293343974 R{6,5} + 1195.222029052256 R{6,6}
   + 1828.103322174921 R{6,7} + 936.5952706669439 R{6,8}
   + 2735.539456150191 R{6,9} + 990.1436023377821 R{6,10}
   + 1420.806284698038 R{6,11} + 1752.150382342484 R{6,12}
   + 888.8035335347652 R{6,13} + 740.7719538090894 R{6,14}
   + 1474.611057715033 R{6,15} + 894.9316234647144 R{6,16}
   + 1294.5977950317 R{6,17} + 1548.742001195028 R{6,18}
   + 1415.806837000597 R{6,19} + 928.150420153002 R{6,20}
   + 1167.330226109591 R{6,21} + 969.0892381140388 R{6,22}
   + 727.682470883715 R{6,23} + 786.597060113225 R{6,24}
   + 1012.581149036128 R{6,25} + 1122.396866308992 R{6,26}
   + 1012.581149036128 R{6,27} + 1975.300566833311 R{6,28}
   + 2411.715754419914 R{6,29} + 1935.18748828926 R{6,30}
   + 952.589602815513 R{6,31} + 1440.574158774553 R{6,32}
Subject To
 R00: R{0,0} <= 1
 R01: R{0,1} <= 1
 R02: R{0,2} <= 1
 R03: R{0,3} <= 1
 R04: R{0,4} <= 1
 R05: R{0,5} <= 1
 R06: R{0,6} <= 1
 R07: R{0,7} <= 1
 R08: R{0,8} <= 1
 R09: R{0,9} <= 1
 R010: R{0,10} <= 1
 R011: R{0,11} <= 1
 R012: R{0,12} <= 1
 R013: R{0,13} <= 1
 R014: R{0,14} <= 1
 R015: R{0,15} <= 1
 R016: R{0,16} <= 1
 R017: R{0,17} <= 1
 R018: R{1,0} <= 1
 R019: R{1,1} <= 1
 R020: R{1,2} <= 1
 R021: R{1,3} <= 1
 R022: R{1,4} <= 1
 R023: R{1,5} <= 1
 R024: R{1,6} <= 1
 R025: R{1,7} <= 1
 R026: R{1,8} <= 1
 R027: R{1,9} <= 1
 R028: R{1,10} <= 1
 R029: R{1,11} <= 1
 R030: R{1,12} <= 1
 R031: R{1,13} <= 1
 R032: R{1,14} <= 1
 R033: R{1,15} <= 1
 R034: R{1,16} <= 1
 R035: R{1,17} <= 1
 R036: R{1,18} <= 1
 R037: R{2,0} <= 1
 R038: R{2,1} <= 1
 R039: R{2,2} <= 1
 R040: R{2,3} <= 1
 R041: R{2,4} <= 1
 R042: R{2,5} <= 1
 R043: R{2,6} <= 1
 R044: R{2,7} <= 1
 R045: R{2,8} <= 1
 R046: R{2,9} <= 1
 R047: R{2,10} <= 1
 R048: R{2,11} <= 1
 R049: R{2,12} <= 1
 R050: R{2,13} <= 1
 R051: R{2,14} <= 1
 R052: R{2,15} <= 1
 R053: R{2,16} <= 1
 R054: R{2,17} <= 1
 R055: R{2,18} <= 1
 R056: R{2,19} <= 1
 R057: R{2,20} <= 1
 R058: R{2,21} <= 1
 R059: R{2,22} <= 1
 R060: R{2,23} <= 1
 R061: R{2,24} <= 1
 R062: R{2,25} <= 1
 R063: R{3,0} <= 1
 R064: R{3,1} <= 1
 R065: R{3,2} <= 1
 R066: R{3,3} <= 1
 R067: R{3,4} <= 1
 R068: R{3,5} <= 1
 R069: R{3,6} <= 1
 R070: R{3,7} <= 1
 R071: R{3,8} <= 1
 R072: R{3,9} <= 1
 R073: R{3,10} <= 1
 R074: R{3,11} <= 1
 R075: R{3,12} <= 1
 R076: R{3,13} <= 1
 R077: R{3,14} <= 1
 R078: R{3,15} <= 1
 R079: R{3,16} <= 1
 R080: R{3,17} <= 1
 R081: R{3,18} <= 1
 R082: R{3,19} <= 1
 R083: R{4,0} <= 1
 R084: R{4,1} <= 1
 R085: R{4,2} <= 1
 R086: R{4,3} <= 1
 R087: R{4,4} <= 1
 R088: R{4,5} <= 1
 R089: R{4,6} <= 1
 R090: R{4,7} <= 1
 R091: R{4,8} <= 1
 R092: R{4,9} <= 1
 R093: R{4,10} <= 1
 R094: R{4,11} <= 1
 R095: R{4,12} <= 1
 R096: R{4,13} <= 1
 R097: R{4,14} <= 1
 R098: R{4,15} <= 1
 R099: R{4,16} <= 1
 R0100: R{4,17} <= 1
 R0101: R{4,18} <= 1
 R0102: R{4,19} <= 1
 R0103: R{4,20} <= 1
 R0104: R{4,21} <= 1
 R0105: R{5,0} <= 1
 R0106: R{5,1} <= 1
 R0107: R{5,2} <= 1
 R0108: R{5,3} <= 1
 R0109: R{5,4} <= 1
 R0110: R{5,5} <= 1
 R0111: R{5,6} <= 1
 R0112: R{5,7} <= 1
 R0113: R{5,8} <= 1
 R0114: R{5,9} <= 1
 R0115: R{5,10} <= 1
 R0116: R{5,11} <= 1
 R0117: R{5,12} <= 1
 R0118: R{5,13} <= 1
 R0119: R{6,0} <= 1
 R0120: R{6,1} <= 1
 R0121: R{6,2} <= 1
 R0122: R{6,3} <= 1
 R0123: R{6,4} <= 1
 R0124: R{6,5} <= 1
 R0125: R{6,6} <= 1
 R0126: R{6,7} <= 1
 R0127: R{6,8} <= 1
 R0128: R{6,9} <= 1
 R0129: R{6,10} <= 1
 R0130: R{6,11} <= 1
 R0131: R{6,12} <= 1
 R0132: R{6,13} <= 1
 R0133: R{6,14} <= 1
 R0134: R{6,15} <= 1
 R0135: R{6,16} <= 1
 R0136: R{6,17} <= 1
 R0137: R{6,18} <= 1
 R0138: R{6,19} <= 1
 R0139: R{6,20} <= 1
 R0140: R{6,21} <= 1
 R0141: R{6,22} <= 1
 R0142: R{6,23} <= 1
 R0143: R{6,24} <= 1
 R0144: R{6,25} <= 1
 R0145: R{6,26} <= 1
 R0146: R{6,27} <= 1
 R0147: R{6,28} <= 1
 R0148: R{6,29} <= 1
 R0149: R{6,30} <= 1
 R0150: R{6,31} <= 1
 R0151: R{6,32} <= 1
 R1_0: R{0,0} + R{0,1} + R{0,2} + R{0,3} + R{0,4} + R{0,5} + R{0,6}
   + R{0,7} + R{0,8} + R{0,9} + R{0,10} + R{0,11} + R{0,12} + R{0,13}
   + R{0,14} + R{0,15} + R{0,16} + R{0,17} <= 1
 R1_1: R{1,0} + R{1,1} + R{1,2} + R{1,3} + R{1,4} + R{1,5} + R{1,6}
   + R{1,7} + R{1,8} + R{1,9} + R{1,10} + R{1,11} + R{1,12} + R{1,13}
   + R{1,14} + R{1,15} + R{1,16} + R{1,17} + R{1,18} <= 1
 R1_2: R{2,0} + R{2,1} + R{2,2} + R{2,3} + R{2,4} + R{2,5} + R{2,6}
   + R{2,7} + R{2,8} + R{2,9} + R{2,10} + R{2,11} + R{2,12} + R{2,13}
   + R{2,14} + R{2,15} + R{2,16} + R{2,17} + R{2,18} + R{2,19} + R{2,20}
   + R{2,21} + R{2,22} + R{2,23} + R{2,24} + R{2,25} <= 1
 R1_3: R{3,0} + R{3,1} + R{3,2} + R{3,3} + R{3,4} + R{3,5} + R{3,6}
   + R{3,7} + R{3,8} + R{3,9} + R{3,10} + R{3,11} + R{3,12} + R{3,13}
   + R{3,14} + R{3,15} + R{3,16} + R{3,17} + R{3,18} + R{3,19} <= 1
 R1_4: R{4,0} + R{4,1} + R{4,2} + R{4,3} + R{4,4} + R{4,5} + R{4,6}
   + R{4,7} + R{4,8} + R{4,9} + R{4,10} + R{4,11} + R{4,12} + R{4,13}
   + R{4,14} + R{4,15} + R{4,16} + R{4,17} + R{4,18} + R{4,19} + R{4,20}
   + R{4,21} <= 1
 R1_5: R{5,0} + R{5,1} + R{5,2} + R{5,3} + R{5,4} + R{5,5} + R{5,6}
   + R{5,7} + R{5,8} + R{5,9} + R{5,10} + R{5,11} + R{5,12} + R{5,13} <= 1
 R1_6: R{6,0} + R{6,1} + R{6,2} + R{6,3} + R{6,4} + R{6,5} + R{6,6}
   + R{6,7} + R{6,8} + R{6,9} + R{6,10} + R{6,11} + R{6,12} + R{6,13}
   + R{6,14} + R{6,15} + R{6,16} + R{6,17} + R{6,18} + R{6,19} + R{6,20}
   + R{6,21} + R{6,22} + R{6,23} + R{6,24} + R{6,25} + R{6,26} + R{6,27}
   + R{6,28} + R{6,29} + R{6,30} + R{6,31} + R{6,32} <= 1
 R2_0: 7 R{2,14} + 7 R{6,31} <= 7
 R2_1: 10 R{2,3} + 10 R{2,4} + 10 R{2,5} + 10 R{2,7} + 10 R{2,9}
   + 10 R{2,12} + 10 R{2,24} + 10 R{3,3} <= 10
 R2_2: <= 0
 R2_3: 4 R{2,3} + 4 R{2,4} + 4 R{2,5} + 4 R{2,7} + 4 R{2,10} <= 4
 R2_4: <= 0
 R2_5: 5 R{0,4} + 5 R{0,5} + 5 R{0,6} <= 5
 R2_6: 10 R{0,9} + 10 R{2,9} + 10 R{3,1} + 10 R{3,2} + 10 R{3,3}
   + 10 R{3,15} + 10 R{3,16} + 10 R{5,4} + 10 R{5,5} <= 10
 R2_7: 6 R{1,1} + 6 R{1,3} + 6 R{1,4} <= 6
 R2_8: <= 0
 R2_9: 12 R{4,1} + 12 R{4,2} + 12 R{4,3} + 12 R{4,4} + 12 R{4,5}
   + 12 R{4,6} + 12 R{4,8} + 12 R{4,9} + 12 R{4,10} + 12 R{4,11}
   + 12 R{4,12} + 12 R{4,13} + 12 R{4,14} + 12 R{4,15} + 12 R{4,16}
   + 12 R{4,17} + 12 R{4,18} + 12 R{4,19} + 12 R{4,20} + 12 R{4,21} <= 12
 R2_10: 8 R{6,1} + 8 R{6,2} + 8 R{6,5} + 8 R{6,6} + 8 R{6,7} + 8 R{6,11}
   + 8 R{6,15} + 8 R{6,18} + 8 R{6,25} + 8 R{6,27} + 8 R{6,30} + 8 R{6,32}
   <= 8
 R2_11: 15 R{0,17} + 15 R{6,29} <= 15
 R2_12: <= 0
 R2_13: <= 0
 R2_14: <= 0
 R2_15: 11 R{0,0} + 11 R{0,1} + 11 R{0,2} + 11 R{4,1} + 11 R{4,2}
   + 11 R{4,4} + 11 R{4,10} <= 11
 R2_16: <= 0
 R2_17: <= 0
 R2_18: <= 0
 R2_19: 11 R{0,13} + 11 R{1,4} + 11 R{2,24} + 11 R{4,1} + 11 R{4,2}
   + 11 R{4,3} + 11 R{4,4} + 11 R{4,5} + 11 R{4,8} + 11 R{4,9} + 11 R{4,10}
   + 11 R{4,11} + 11 R{4,12} + 11 R{4,15} + 11 R{4,16} + 11 R{4,17}
   + 11 R{4,20} + 11 R{4,21} <= 11
 R2_20: 13 R{0,8} + 13 R{1,3} + 13 R{1,5} + 13 R{3,4} + 13 R{3,6}
   + 13 R{3,11} + 13 R{3,14} + 13 R{4,6} + 13 R{4,10} + 13 R{5,3}
   + 13 R{6,1} + 13 R{6,2} + 13 R{6,3} + 13 R{6,5} + 13 R{6,7} + 13 R{6,9}
   + 13 R{6,11} + 13 R{6,18} + 13 R{6,25} + 13 R{6,27} + 13 R{6,28}
   + 13 R{6,29} + 13 R{6,30} + 13 R{6,32} <= 13
 R2_21: <= 0
 R2_22: 10 R{4,16} + 10 R{4,19} <= 10
 R2_23: 14 R{0,1} + 14 R{0,2} + 14 R{0,7} + 14 R{0,10} + 14 R{0,11}
   + 14 R{0,12} + 14 R{0,14} + 14 R{0,15} + 14 R{0,16} + 14 R{2,0}
   + 14 R{2,1} + 14 R{2,6} + 14 R{2,8} + 14 R{2,11} + 14 R{2,13}
   + 14 R{2,15} + 14 R{2,16} + 14 R{2,17} + 14 R{2,18} + 14 R{2,19}
   + 14 R{2,20} + 14 R{2,22} + 14 R{2,25} + 14 R{4,8} + 14 R{4,14}
   + 14 R{6,2} + 14 R{6,3} + 14 R{6,5} + 14 R{6,7} + 14 R{6,9} + 14 R{6,12}
   + 14 R{6,15} + 14 R{6,17} + 14 R{6,19} + 14 R{6,21} + 14 R{6,30} <= 14
 R2_24: 10 R{1,5} + 10 R{3,1} + 10 R{3,2} + 10 R{3,3} + 10 R{3,4}
   + 10 R{3,5} + 10 R{3,6} + 10 R{3,7} + 10 R{3,8} + 10 R{3,10}
   + 10 R{3,12} + 10 R{3,13} + 10 R{3,14} + 10 R{3,15} + 10 R{3,16}
   + 10 R{3,17} + 10 R{4,13} + 10 R{6,30} <= 10
 R2_25: 13 R{4,1} + 13 R{4,2} + 13 R{4,4} + 13 R{4,5} + 13 R{4,6}
   + 13 R{4,7} + 13 R{4,8} + 13 R{4,10} + 13 R{4,11} + 13 R{4,12}
   + 13 R{4,13} + 13 R{4,14} + 13 R{4,15} + 13 R{4,17} + 13 R{4,18}
   + 13 R{4,20} + 13 R{4,21} + 13 R{6,13} <= 13
 R2_26: 6 R{1,1} + 6 R{1,2} + 6 R{1,3} + 6 R{1,4} + 6 R{1,5} + 6 R{1,6}
   + 6 R{1,7} + 6 R{1,8} + 6 R{1,12} + 6 R{1,14} + 6 R{1,18} + 6 R{2,12}
   + 6 R{5,12} + 6 R{5,13} <= 6
 R2_27: 5 R{0,5} + 5 R{0,6} + 5 R{1,9} + 5 R{1,13} + 5 R{1,15} + 5 R{1,18}
   + 5 R{2,4} + 5 R{2,5} + 5 R{2,9} + 5 R{2,10} + 5 R{3,7} + 5 R{3,10}
   + 5 R{3,11} + 5 R{3,12} + 5 R{3,13} + 5 R{3,14} + 5 R{3,18} + 5 R{3,19}
   + 5 R{4,10} + 5 R{4,14} + 5 R{4,18} + 5 R{5,7} + 5 R{5,9} + 5 R{5,10}
   + 5 R{5,11} + 5 R{6,1} + 5 R{6,2} + 5 R{6,3} + 5 R{6,5} + 5 R{6,6}
   + 5 R{6,8} + 5 R{6,9} + 5 R{6,11} + 5 R{6,15} + 5 R{6,17} + 5 R{6,19}
   + 5 R{6,20} + 5 R{6,21} + 5 R{6,22} + 5 R{6,24} + 5 R{6,28} + 5 R{6,29}
   + 5 R{6,32} <= 5
 R2_28: <= 0
 R2_29: <= 0
 R2_30: <= 0
 R2_31: <= 0
 R2_32: 7 R{3,17} + 7 R{5,1} + 7 R{5,2} + 7 R{5,3} + 7 R{5,4} + 7 R{5,5}
   + 7 R{5,6} + 7 R{5,7} + 7 R{5,8} + 7 R{5,12} + 7 R{5,13} <= 7
 R2_33: 12 R{1,17} + 12 R{6,20} + 12 R{6,21} <= 12
 R2_34: 5 R{1,6} + 5 R{1,7} + 5 R{1,8} + 5 R{1,9} + 5 R{1,10} + 5 R{1,11}
   + 5 R{1,12} + 5 R{1,14} + 5 R{1,16} + 5 R{1,17} + 5 R{6,14} + 5 R{6,19}
   <= 5
 R2_35: <= 0
 R2_36: <= 0
 R2_37: 5 R{3,1} + 5 R{3,2} + 5 R{3,15} + 5 R{3,16} + 5 R{3,17} + 5 R{3,19}
   + 5 R{5,6} + 5 R{5,8} <= 5
 R2_38: <= 0
 R2_39: <= 0
 R2_40: 15 R{2,3} + 15 R{2,4} + 15 R{2,5} + 15 R{2,7} + 15 R{2,9}
   + 15 R{2,10} + 15 R{2,12} + 15 R{2,24} + 15 R{5,9} + 15 R{5,10}
   + 15 R{5,13} <= 15
 R2_41: 5 R{3,2} + 5 R{3,3} + 5 R{3,4} + 5 R{3,5} + 5 R{3,6} + 5 R{3,8}
   + 5 R{3,9} + 5 R{3,11} + 5 R{3,15} + 5 R{4,3} + 5 R{4,9} + 5 R{6,6}
   + 5 R{6,10} + 5 R{6,13} + 5 R{6,16} + 5 R{6,31} + 5 R{6,32} <= 5
 R2_42: 4 R{2,3} + 4 R{2,4} + 4 R{2,5} + 4 R{2,7} + 4 R{2,9} + 4 R{2,10}
   + 4 R{2,12} + 4 R{2,24} <= 4
 R2_43: <= 0
 R2_44: <= 0
 R2_45: <= 0
 R2_46: 9 R{2,23} + 9 R{4,11} + 9 R{4,12} + 9 R{4,13} + 9 R{4,16}
   + 9 R{4,17} + 9 R{4,21} <= 9
 R2_47: 7 R{5,1} + 7 R{5,2} + 7 R{5,3} + 7 R{5,4} + 7 R{5,6} + 7 R{5,7}
   + 7 R{5,9} + 7 R{5,11} + 7 R{5,12} <= 7
 R2_48: 4 R{4,1} + 4 R{4,2} + 4 R{4,3} + 4 R{4,4} + 4 R{4,5} + 4 R{4,6}
   + 4 R{4,7} + 4 R{4,8} + 4 R{4,10} + 4 R{4,11} + 4 R{4,12} + 4 R{4,13}
   + 4 R{4,14} + 4 R{4,15} + 4 R{4,16} + 4 R{4,17} + 4 R{4,18} + 4 R{4,19}
   + 4 R{4,20} <= 4
 R2_49: <= 0
 R2_50: <= 0
 R2_51: 11 R{0,9} + 11 R{3,8} + 11 R{4,1} + 11 R{4,5} + 11 R{4,8}
   + 11 R{4,14} + 11 R{4,15} + 11 R{4,18} + 11 R{4,20} + 11 R{5,5}
   + 11 R{5,8} <= 11
 R2_52: 10 R{4,20} + 10 R{4,21} <= 10
 R2_53: 13 R{4,1} + 13 R{4,2} + 13 R{4,3} + 13 R{4,5} + 13 R{4,6}
   + 13 R{4,7} + 13 R{4,8} + 13 R{4,10} + 13 R{4,14} + 13 R{4,15}
   + 13 R{4,18} + 13 R{4,20} <= 13
 R2_54: 9 R{3,1} + 9 R{3,2} + 9 R{3,3} + 9 R{3,4} + 9 R{3,5} + 9 R{3,6}
   + 9 R{3,7} + 9 R{3,8} + 9 R{3,9} + 9 R{3,11} + 9 R{3,14} + 9 R{3,15}
   + 9 R{3,16} + 9 R{3,17} + 9 R{3,19} <= 9
 R2_55: 8 R{6,1} + 8 R{6,2} + 8 R{6,3} + 8 R{6,4} + 8 R{6,5} + 8 R{6,7}
   + 8 R{6,9} + 8 R{6,11} + 8 R{6,12} + 8 R{6,15} + 8 R{6,17} + 8 R{6,18}
   + 8 R{6,19} + 8 R{6,22} + 8 R{6,23} + 8 R{6,25} + 8 R{6,26} + 8 R{6,27}
   + 8 R{6,28} + 8 R{6,29} + 8 R{6,30} + 8 R{6,32} <= 8
 R2_56: 6 R{2,0} + 6 R{2,1} + 6 R{2,6} + 6 R{2,14} + 6 R{2,23} + 6 R{2,25}
   + 6 R{4,4} + 6 R{4,11} + 6 R{4,13} + 6 R{4,16} + 6 R{4,19} + 6 R{6,2}
   + 6 R{6,3} + 6 R{6,5} + 6 R{6,7} + 6 R{6,9} + 6 R{6,12} + 6 R{6,15}
   + 6 R{6,18} + 6 R{6,26} + 6 R{6,29} + 6 R{6,30} <= 6
 R2_57: <= 0
 R2_58: <= 0
 R2_59: <= 10
 R2_60: <= 0
 R2_61: 9 R{0,12} + 9 R{2,6} + 9 R{2,8} + 9 R{2,11} + 9 R{2,13} + 9 R{2,15}
   + 9 R{2,16} + 9 R{2,19} + 9 R{2,20} + 9 R{2,21} + 9 R{2,22} + 9 R{2,25}
   + 9 R{4,7} + 9 R{4,9} + 9 R{6,10} + 9 R{6,13} + 9 R{6,14} + 9 R{6,16}
   + 9 R{6,17} + 9 R{6,19} + 9 R{6,21} + 9 R{6,28} + 9 R{6,31} <= 9
 R2_62: <= 0
 R2_63: <= 0
 R2_64: <= 0
 R2_65: 5 R{2,0} + 5 R{2,1} + 5 R{2,23} + 5 R{6,1} + 5 R{6,2} + 5 R{6,3}
   + 5 R{6,4} + 5 R{6,5} + 5 R{6,6} + 5 R{6,7} + 5 R{6,8} + 5 R{6,9}
   + 5 R{6,10} + 5 R{6,11} + 5 R{6,12} + 5 R{6,13} + 5 R{6,14} + 5 R{6,15}
   + 5 R{6,16} + 5 R{6,17} + 5 R{6,18} + 5 R{6,19} + 5 R{6,20} + 5 R{6,21}
   + 5 R{6,22} + 5 R{6,23} + 5 R{6,24} + 5 R{6,25} + 5 R{6,26} + 5 R{6,27}
   + 5 R{6,28} + 5 R{6,29} + 5 R{6,30} <= 5
 R2_66: 7 R{1,6} + 7 R{1,10} + 7 R{1,11} + 7 R{6,1} + 7 R{6,2} + 7 R{6,3}
   + 7 R{6,4} + 7 R{6,5} + 7 R{6,6} + 7 R{6,9} + 7 R{6,10} + 7 R{6,11}
   + 7 R{6,12} + 7 R{6,14} + 7 R{6,16} + 7 R{6,18} + 7 R{6,25} + 7 R{6,27}
   + 7 R{6,29} + 7 R{6,31} <= 7
 R2_67: 3 R{0,1} + 3 R{0,2} + 3 R{0,7} + 3 R{0,10} + 3 R{0,11} + 3 R{0,17}
   + 3 R{2,0} + 3 R{2,1} + 3 R{2,8} + 3 R{2,11} + 3 R{2,13} + 3 R{2,14}
   + 3 R{2,17} + 3 R{2,20} + 3 R{2,21} + 3 R{2,23} + 3 R{6,3} + 3 R{6,4}
   + 3 R{6,8} + 3 R{6,9} + 3 R{6,12} + 3 R{6,20} + 3 R{6,22} + 3 R{6,23}
   + 3 R{6,24} + 3 R{6,26} + 3 R{6,28} + 3 R{6,29} <= 3
 R2_68: 6 R{1,1} + 6 R{1,2} + 6 R{1,6} + 6 R{1,10} + 6 R{1,11} + 6 R{1,17}
   + 6 R{1,18} <= 6
 R2_69: 7 R{3,5} + 7 R{3,10} + 7 R{3,13} + 7 R{4,1} + 7 R{4,2} + 7 R{4,3}
   + 7 R{4,4} + 7 R{4,5} + 7 R{4,6} + 7 R{4,7} + 7 R{4,8} + 7 R{4,9}
   + 7 R{4,11} + 7 R{4,12} + 7 R{4,15} + 7 R{4,16} + 7 R{4,17} + 7 R{4,19}
   + 7 R{4,20} + 7 R{4,21} <= 7
 R2_70: 11 R{1,1} + 11 R{1,2} + 11 R{1,3} + 11 R{1,18} <= 11
 R2_71: 7 R{1,6} + 7 R{1,7} + 7 R{1,8} + 7 R{1,9} + 7 R{1,12} + 7 R{1,13}
   + 7 R{1,14} + 7 R{1,16} + 7 R{3,9} + 7 R{6,1} + 7 R{6,2} + 7 R{6,3}
   + 7 R{6,4} + 7 R{6,5} + 7 R{6,6} + 7 R{6,7} + 7 R{6,8} + 7 R{6,10}
   + 7 R{6,11} + 7 R{6,12} + 7 R{6,14} + 7 R{6,15} + 7 R{6,16} + 7 R{6,17}
   + 7 R{6,18} + 7 R{6,23} + 7 R{6,25} + 7 R{6,26} + 7 R{6,27} + 7 R{6,29}
   + 7 R{6,30} + 7 R{6,31} + 7 R{6,32} <= 7
 R2_72: <= 0
 R2_73: 11 R{4,19} <= 11
 R2_74: 5 R{5,1} + 5 R{5,3} + 5 R{5,4} + 5 R{5,6} + 5 R{5,12} + 5 R{5,13}
   <= 5
 R2_75: 8 R{6,1} + 8 R{6,2} + 8 R{6,3} + 8 R{6,4} + 8 R{6,6} + 8 R{6,8}
   + 8 R{6,9} + 8 R{6,10} + 8 R{6,11} + 8 R{6,12} + 8 R{6,13} + 8 R{6,22}
   + 8 R{6,23} + 8 R{6,24} + 8 R{6,25} + 8 R{6,26} + 8 R{6,27} + 8 R{6,28}
   + 8 R{6,29} + 8 R{6,30} + 8 R{6,31} + 8 R{6,32} <= 8
 R2_76: 12 R{0,4} + 12 R{0,5} + 12 R{0,6} + 12 R{0,8} + 12 R{0,9}
   + 12 R{0,13} + 12 R{2,10} + 12 R{6,5} + 12 R{6,7} + 12 R{6,9}
   + 12 R{6,18} + 12 R{6,28} <= 12
 R2_77: 7 R{0,5} + 7 R{0,6} + 7 R{0,8} + 7 R{0,13} + 7 R{1,2} + 7 R{1,7}
   + 7 R{1,8} + 7 R{1,12} + 7 R{1,14} + 7 R{1,16} + 7 R{1,17} + 7 R{1,18}
   + 7 R{2,4} + 7 R{2,5} + 7 R{2,9} + 7 R{2,10} + 7 R{4,2} + 7 R{4,3}
   + 7 R{4,4} + 7 R{4,9} + 7 R{4,11} + 7 R{4,13} + 7 R{5,2} <= 7
Bounds
End
